(set-logic QF_UF)
(declare-fun A0 () Bool)
(declare-fun A1 () Bool)
(declare-fun A2 () Bool)
(declare-fun A3 () Bool)
(declare-fun A4 () Bool)
(declare-fun A5 () Bool)
(declare-fun A6 () Bool)
(declare-fun A7 () Bool)
(declare-fun A8 () Bool)
(declare-fun A9 () Bool)
(declare-fun A10 () Bool)
(declare-fun A11 () Bool)
(declare-fun A12 () Bool)
(declare-fun A13 () Bool)
(declare-fun A14 () Bool)
(declare-fun A15 () Bool)
(declare-fun A16 () Bool)
(declare-fun A17 () Bool)
(declare-fun A18 () Bool)
(declare-fun A19 () Bool)
(declare-fun A20 () Bool)
(declare-fun A21 () Bool)
(declare-fun A22 () Bool)
(declare-fun A23 () Bool)
(declare-fun A24 () Bool)
(assert (let ((.def_0 (not A12))) (let ((.def_1 (or A24 .def_0))) (let ((.def_2 (not .def_1))) (let ((.def_3 (or A11 A15))) (let ((.def_4 (or .def_3 .def_2))) (let ((.def_5 (not .def_4))) (let ((.def_6 (and .def_0 A11))) (let ((.def_7 (= A4 A3))) (let ((.def_8 (not .def_7))) (let ((.def_9 (and .def_8 .def_6))) (let ((.def_10 (not .def_9))) (let ((.def_11 (or .def_10 .def_5))) (let ((.def_12 (and A21 A18))) (let ((.def_13 (not .def_12))) (let ((.def_14 (not A24))) (let ((.def_15 (and .def_14 A10))) (let ((.def_16 (or .def_15 .def_13))) (let ((.def_17 (not A23))) (let ((.def_18 (not A2))) (let ((.def_19 (or .def_18 .def_17))) (let ((.def_20 (not .def_19))) (let ((.def_21 (= .def_0 A23))) (let ((.def_22 (not .def_21))) (let ((.def_23 (and .def_22 .def_20))) (let ((.def_24 (and .def_23 .def_16))) (let ((.def_25 (= .def_24 .def_11))) (let ((.def_26 (and A3 A0))) (let ((.def_27 (not A4))) (let ((.def_28 (or .def_27 A15))) (let ((.def_29 (not .def_28))) (let ((.def_30 (= .def_29 .def_26))) (let ((.def_31 (not .def_30))) (let ((.def_32 (not A0))) (let ((.def_33 (= .def_32 A7))) (let ((.def_34 (not .def_33))) (let ((.def_35 (and A8 A1))) (let ((.def_36 (and .def_35 .def_34))) (let ((.def_37 (not .def_36))) (let ((.def_38 (or .def_37 .def_31))) (let ((.def_39 (not .def_38))) (let ((.def_40 (not A19))) (let ((.def_41 (= A14 .def_40))) (let ((.def_42 (not .def_41))) (let ((.def_43 (not A3))) (let ((.def_44 (or .def_43 A15))) (let ((.def_45 (not .def_44))) (let ((.def_46 (and .def_45 .def_42))) (let ((.def_47 (not .def_46))) (let ((.def_48 (and A11 A15))) (let ((.def_49 (not .def_48))) (let ((.def_50 (and A23 A14))) (let ((.def_51 (not .def_50))) (let ((.def_52 (or .def_51 .def_49))) (let ((.def_53 (and .def_52 .def_47))) (let ((.def_54 (not .def_53))) (let ((.def_55 (or .def_54 .def_39))) (let ((.def_56 (not .def_55))) (let ((.def_57 (and .def_56 .def_25))) (let ((.def_58 (not .def_57))) (let ((.def_59 (and A6 A9))) (let ((.def_60 (not .def_59))) (let ((.def_61 (and .def_17 .def_32))) (let ((.def_62 (and .def_61 .def_60))) (let ((.def_63 (not .def_62))) (let ((.def_64 (and .def_32 A2))) (let ((.def_65 (not .def_64))) (let ((.def_66 (not A18))) (let ((.def_67 (and .def_66 A8))) (let ((.def_68 (and .def_67 .def_65))) (let ((.def_69 (and .def_68 .def_63))) (let ((.def_70 (not .def_69))) (let ((.def_71 (or A9 A12))) (let ((.def_72 (not .def_71))) (let ((.def_73 (or .def_19 .def_72))) (let ((.def_74 (not .def_73))) (let ((.def_75 (or A6 A14))) (let ((.def_76 (= .def_66 .def_0))) (let ((.def_77 (not .def_76))) (let ((.def_78 (= .def_77 .def_75))) (let ((.def_79 (= .def_78 .def_74))) (let ((.def_80 (not .def_79))) (let ((.def_81 (and .def_80 .def_70))) (let ((.def_82 (not .def_81))) (let ((.def_83 (not A10))) (let ((.def_84 (and .def_83 A0))) (let ((.def_85 (or A18 A24))) (let ((.def_86 (or .def_85 .def_84))) (let ((.def_87 (not A5))) (let ((.def_88 (not A13))) (let ((.def_89 (or .def_88 .def_87))) (let ((.def_90 (not .def_89))) (let ((.def_91 (or .def_32 A17))) (let ((.def_92 (or .def_91 .def_90))) (let ((.def_93 (not .def_92))) (let ((.def_94 (or .def_93 .def_86))) (let ((.def_95 (not .def_94))) (let ((.def_96 (not A8))) (let ((.def_97 (or .def_32 .def_96))) (let ((.def_98 (not .def_97))) (let ((.def_99 (= .def_32 A19))) (let ((.def_100 (or .def_99 .def_98))) (let ((.def_101 (or .def_43 A4))) (let ((.def_102 (not .def_101))) (let ((.def_103 (and .def_0 A24))) (let ((.def_104 (= .def_103 .def_102))) (let ((.def_105 (not .def_104))) (let ((.def_106 (= .def_105 .def_100))) (let ((.def_107 (not .def_106))) (let ((.def_108 (or .def_107 .def_95))) (let ((.def_109 (and .def_108 .def_82))) (let ((.def_110 (not .def_109))) (let ((.def_111 (and .def_110 .def_58))) (let ((.def_112 (not .def_111))) (let ((.def_113 (not A16))) (let ((.def_114 (and .def_14 .def_113))) (let ((.def_115 (not A20))) (let ((.def_116 (not A11))) (let ((.def_117 (or .def_116 .def_115))) (let ((.def_118 (not .def_117))) (let ((.def_119 (and .def_118 .def_114))) (let ((.def_120 (not .def_119))) (let ((.def_121 (or A20 .def_43))) (let ((.def_122 (not .def_121))) (let ((.def_123 (or A11 A10))) (let ((.def_124 (not .def_123))) (let ((.def_125 (and .def_124 .def_122))) (let ((.def_126 (not .def_125))) (let ((.def_127 (or .def_126 .def_120))) (let ((.def_128 (not .def_127))) (let ((.def_129 (and A18 .def_66))) (let ((.def_130 (not A1))) (let ((.def_131 (not A17))) (let ((.def_132 (and .def_131 .def_130))) (let ((.def_133 (not .def_132))) (let ((.def_134 (or .def_133 .def_129))) (let ((.def_135 (or .def_0 .def_115))) (let ((.def_136 (not .def_135))) (let ((.def_137 (or .def_43 .def_32))) (let ((.def_138 (or .def_137 .def_136))) (let ((.def_139 (or .def_138 .def_134))) (let ((.def_140 (not .def_139))) (let ((.def_141 (and .def_140 .def_128))) (let ((.def_142 (not .def_141))) (let ((.def_143 (and A15 .def_40))) (let ((.def_144 (and .def_143 .def_1))) (let ((.def_145 (not .def_144))) (let ((.def_146 (= A7 .def_113))) (let ((.def_147 (or A6 .def_0))) (let ((.def_148 (and .def_147 .def_146))) (let ((.def_149 (or .def_148 .def_145))) (let ((.def_150 (not A6))) (let ((.def_151 (or .def_96 .def_150))) (let ((.def_152 (not .def_151))) (let ((.def_153 (or A9 A17))) (let ((.def_154 (or .def_153 .def_152))) (let ((.def_155 (not .def_154))) (let ((.def_156 (or A15 .def_43))) (let ((.def_157 (not .def_156))) (let ((.def_158 (not A14))) (let ((.def_159 (not A21))) (let ((.def_160 (and .def_159 .def_158))) (let ((.def_161 (or .def_160 .def_157))) (let ((.def_162 (not .def_161))) (let ((.def_163 (or .def_162 .def_155))) (let ((.def_164 (not .def_163))) (let ((.def_165 (and .def_164 .def_149))) (let ((.def_166 (or .def_165 .def_142))) (let ((.def_167 (not .def_166))) (let ((.def_168 (and A1 A22))) (let ((.def_169 (or .def_150 A0))) (let ((.def_170 (= .def_169 .def_168))) (let ((.def_171 (not .def_170))) (let ((.def_172 (not A9))) (let ((.def_173 (or .def_172 .def_83))) (let ((.def_174 (and A24 A19))) (let ((.def_175 (or .def_174 .def_173))) (let ((.def_176 (and .def_175 .def_171))) (let ((.def_177 (not .def_176))) (let ((.def_178 (and .def_172 A10))) (let ((.def_179 (and A14 A3))) (let ((.def_180 (or .def_179 .def_178))) (let ((.def_181 (or .def_43 .def_66))) (let ((.def_182 (or .def_160 .def_181))) (let ((.def_183 (not .def_182))) (let ((.def_184 (and .def_183 .def_180))) (let ((.def_185 (not .def_184))) (let ((.def_186 (and .def_185 .def_177))) (let ((.def_187 (not .def_186))) (let ((.def_188 (or A24 .def_115))) (let ((.def_189 (and A20 .def_14))) (let ((.def_190 (or .def_189 .def_188))) (let ((.def_191 (or A5 .def_66))) (let ((.def_192 (not .def_191))) (let ((.def_193 (or A5 A16))) (let ((.def_194 (not .def_193))) (let ((.def_195 (= .def_194 .def_192))) (let ((.def_196 (and .def_195 .def_190))) (let ((.def_197 (and .def_66 A3))) (let ((.def_198 (not .def_197))) (let ((.def_199 (and .def_87 A14))) (let ((.def_200 (not .def_199))) (let ((.def_201 (and .def_200 .def_198))) (let ((.def_202 (or A11 .def_115))) (let ((.def_203 (not .def_202))) (let ((.def_204 (and A4 .def_116))) (let ((.def_205 (or .def_204 .def_203))) (let ((.def_206 (not .def_205))) (let ((.def_207 (= .def_206 .def_201))) (let ((.def_208 (and .def_207 .def_196))) (let ((.def_209 (and .def_208 .def_187))) (let ((.def_210 (not .def_209))) (let ((.def_211 (or .def_210 .def_167))) (let ((.def_212 (not .def_211))) (let ((.def_213 (and .def_212 .def_112))) (let ((.def_214 (and .def_131 A14))) (let ((.def_215 (and .def_18 A21))) (let ((.def_216 (or .def_215 .def_214))) (let ((.def_217 (not .def_216))) (let ((.def_218 (or A24 .def_66))) (let ((.def_219 (not .def_218))) (let ((.def_220 (or .def_115 A17))) (let ((.def_221 (= .def_220 .def_219))) (let ((.def_222 (not .def_221))) (let ((.def_223 (= .def_222 .def_217))) (let ((.def_224 (not .def_223))) (let ((.def_225 (= .def_27 .def_96))) (let ((.def_226 (not .def_225))) (let ((.def_227 (not A22))) (let ((.def_228 (and .def_87 .def_227))) (let ((.def_229 (and .def_228 .def_226))) (let ((.def_230 (or A11 A6))) (let ((.def_231 (or .def_18 A10))) (let ((.def_232 (not .def_231))) (let ((.def_233 (or .def_232 .def_230))) (let ((.def_234 (not .def_233))) (let ((.def_235 (and .def_234 .def_229))) (let ((.def_236 (not .def_235))) (let ((.def_237 (or .def_236 .def_224))) (let ((.def_238 (not .def_237))) (let ((.def_239 (and .def_115 A20))) (let ((.def_240 (or A3 A22))) (let ((.def_241 (not .def_240))) (let ((.def_242 (or .def_241 .def_239))) (let ((.def_243 (not .def_242))) (let ((.def_244 (not A7))) (let ((.def_245 (or .def_244 .def_83))) (let ((.def_246 (not .def_245))) (let ((.def_247 (or .def_43 .def_88))) (let ((.def_248 (not .def_247))) (let ((.def_249 (= .def_248 .def_246))) (let ((.def_250 (or .def_249 .def_243))) (let ((.def_251 (not .def_250))) (let ((.def_252 (and A9 .def_115))) (let ((.def_253 (not .def_252))) (let ((.def_254 (or A3 A19))) (let ((.def_255 (not .def_254))) (let ((.def_256 (or .def_255 .def_253))) (let ((.def_257 (not .def_256))) (let ((.def_258 (or A8 A18))) (let ((.def_259 (and .def_27 A6))) (let ((.def_260 (and .def_259 .def_258))) (let ((.def_261 (not .def_260))) (let ((.def_262 (or .def_261 .def_257))) (let ((.def_263 (not .def_262))) (let ((.def_264 (or .def_263 .def_251))) (let ((.def_265 (and .def_264 .def_238))) (let ((.def_266 (not .def_265))) (let ((.def_267 (not A15))) (let ((.def_268 (= .def_267 .def_88))) (let ((.def_269 (and .def_131 A1))) (let ((.def_270 (not .def_269))) (let ((.def_271 (and .def_270 .def_268))) (let ((.def_272 (not .def_271))) (let ((.def_273 (or .def_40 A3))) (let ((.def_274 (not .def_273))) (let ((.def_275 (or .def_14 .def_227))) (let ((.def_276 (and .def_275 .def_274))) (let ((.def_277 (not .def_276))) (let ((.def_278 (= .def_277 .def_272))) (let ((.def_279 (and A13 A7))) (let ((.def_280 (and A24 .def_0))) (let ((.def_281 (or .def_280 .def_279))) (let ((.def_282 (not .def_281))) (let ((.def_283 (and .def_130 .def_88))) (let ((.def_284 (or A21 .def_83))) (let ((.def_285 (not .def_284))) (let ((.def_286 (or .def_285 .def_283))) (let ((.def_287 (not .def_286))) (let ((.def_288 (and .def_287 .def_282))) (let ((.def_289 (or .def_288 .def_278))) (let ((.def_290 (= A23 .def_17))) (let ((.def_291 (or .def_131 .def_115))) (let ((.def_292 (not .def_291))) (let ((.def_293 (and .def_292 .def_290))) (let ((.def_294 (or A12 A20))) (let ((.def_295 (not .def_294))) (let ((.def_296 (and A4 A9))) (let ((.def_297 (not .def_296))) (let ((.def_298 (and .def_297 .def_295))) (let ((.def_299 (or .def_298 .def_293))) (let ((.def_300 (not .def_299))) (let ((.def_301 (or A0 .def_18))) (let ((.def_302 (or .def_130 A6))) (let ((.def_303 (not .def_302))) (let ((.def_304 (and .def_303 .def_301))) (let ((.def_305 (not .def_304))) (let ((.def_306 (or A6 A12))) (let ((.def_307 (or A14 A8))) (let ((.def_308 (not .def_307))) (let ((.def_309 (and .def_308 .def_306))) (let ((.def_310 (and .def_309 .def_305))) (let ((.def_311 (not .def_310))) (let ((.def_312 (or .def_311 .def_300))) (let ((.def_313 (not .def_312))) (let ((.def_314 (or .def_313 .def_289))) (let ((.def_315 (and .def_314 .def_266))) (let ((.def_316 (or A16 A20))) (let ((.def_317 (not .def_316))) (let ((.def_318 (= A13 A22))) (let ((.def_319 (or .def_318 .def_317))) (let ((.def_320 (not .def_319))) (let ((.def_321 (and A10 .def_158))) (let ((.def_322 (not .def_321))) (let ((.def_323 (and A14 .def_0))) (let ((.def_324 (not .def_323))) (let ((.def_325 (and .def_324 .def_322))) (let ((.def_326 (or .def_325 .def_320))) (let ((.def_327 (not .def_326))) (let ((.def_328 (and .def_87 .def_88))) (let ((.def_329 (not .def_328))) (let ((.def_330 (or A1 .def_88))) (let ((.def_331 (and .def_330 .def_329))) (let ((.def_332 (not .def_331))) (let ((.def_333 (and A13 A23))) (let ((.def_334 (and .def_43 A7))) (let ((.def_335 (not .def_334))) (let ((.def_336 (or .def_335 .def_333))) (let ((.def_337 (not .def_336))) (let ((.def_338 (or .def_337 .def_332))) (let ((.def_339 (and .def_338 .def_327))) (let ((.def_340 (or .def_227 A3))) (let ((.def_341 (not .def_340))) (let ((.def_342 (or A7 .def_14))) (let ((.def_343 (= .def_342 .def_341))) (let ((.def_344 (or A21 .def_32))) (let ((.def_345 (or .def_116 A16))) (let ((.def_346 (and .def_345 .def_344))) (let ((.def_347 (not .def_346))) (let ((.def_348 (and .def_347 .def_343))) (let ((.def_349 (and .def_115 .def_113))) (let ((.def_350 (not .def_349))) (let ((.def_351 (and A7 A3))) (let ((.def_352 (and .def_351 .def_350))) (let ((.def_353 (and .def_244 A3))) (let ((.def_354 (not .def_353))) (let ((.def_355 (and A12 A3))) (let ((.def_356 (and .def_355 .def_354))) (let ((.def_357 (not .def_356))) (let ((.def_358 (or .def_357 .def_352))) (let ((.def_359 (not .def_358))) (let ((.def_360 (and .def_359 .def_348))) (let ((.def_361 (not .def_360))) (let ((.def_362 (and .def_361 .def_339))) (let ((.def_363 (not .def_239))) (let ((.def_364 (or A4 A10))) (let ((.def_365 (not .def_364))) (let ((.def_366 (or .def_365 .def_363))) (let ((.def_367 (not .def_366))) (let ((.def_368 (or A11 .def_130))) (let ((.def_369 (and .def_17 .def_267))) (let ((.def_370 (not .def_369))) (let ((.def_371 (or .def_370 .def_368))) (let ((.def_372 (not .def_371))) (let ((.def_373 (and .def_372 .def_367))) (let ((.def_374 (and .def_27 .def_116))) (let ((.def_375 (and A0 .def_227))) (let ((.def_376 (not .def_375))) (let ((.def_377 (or .def_376 .def_374))) (let ((.def_378 (or A18 A8))) (let ((.def_379 (and .def_87 .def_159))) (let ((.def_380 (not .def_379))) (let ((.def_381 (= .def_380 .def_378))) (let ((.def_382 (not .def_381))) (let ((.def_383 (and .def_382 .def_377))) (let ((.def_384 (not .def_383))) (let ((.def_385 (and .def_384 .def_373))) (let ((.def_386 (not .def_385))) (let ((.def_387 (or A22 .def_116))) (let ((.def_388 (or A0 .def_43))) (let ((.def_389 (and .def_388 .def_387))) (let ((.def_390 (not .def_389))) (let ((.def_391 (or A3 A2))) (let ((.def_392 (not .def_391))) (let ((.def_393 (and .def_40 A11))) (let ((.def_394 (not .def_393))) (let ((.def_395 (or .def_394 .def_392))) (let ((.def_396 (not .def_395))) (let ((.def_397 (and .def_396 .def_390))) (let ((.def_398 (not .def_397))) (let ((.def_399 (or .def_267 A3))) (let ((.def_400 (not .def_399))) (let ((.def_401 (or A24 .def_267))) (let ((.def_402 (and .def_401 .def_400))) (let ((.def_403 (not .def_402))) (let ((.def_404 (= A20 A11))) (let ((.def_405 (not .def_404))) (let ((.def_406 (or .def_158 .def_27))) (let ((.def_407 (or .def_406 .def_405))) (let ((.def_408 (not .def_407))) (let ((.def_409 (and .def_408 .def_403))) (let ((.def_410 (not .def_409))) (let ((.def_411 (or .def_410 .def_398))) (let ((.def_412 (not .def_411))) (let ((.def_413 (or .def_412 .def_386))) (let ((.def_414 (not .def_413))) (let ((.def_415 (and .def_414 .def_362))) (let ((.def_416 (not .def_415))) (let ((.def_417 (or .def_416 .def_315))) (let ((.def_418 (and .def_417 .def_213))) .def_418))))))))))))))))))))))))))))))))))))))))))))))))))))))))))))))))))))))))))))))))))))))))))))))))))))))))))))))))))))))))))))))))))))))))))))))))))))))))))))))))))))))))))))))))))))))))))))))))))))))))))))))))))))))))))))))))))))))))))))))))))))))))))))))))))))))))))))))))))))))))))))))))))))))))))))))))))))))))))))))))))))))))))))))))))))))))))))))))))))))))))))))))))))))))))))))))))))))))))))))))))))))))))))))))))))
(check-sat)
